============================[ Problem Statistics ]=============================|                                                                             ||  Number of variables:          4242                                         ||  Number of clauses:            9642                                         ||  Parse time:                   0.05 s                                       ||                                                                             |============================[ Search Statistics ]==============================| Conflicts |          ORIGINAL         |          LEARNT          | Progress ||           |    Vars  Clauses Literals |    Limit  Clauses Lit/Cl |          |==============================================================================================================================================================restarts              : 1conflicts             : 31             (500 /sec)decisions             : 117            (0.00 % random) (1887 /sec)propagations          : 8074           (130226 /sec)conflict literals     : 986            (95.59 % deleted)CPU time              : 0.062 sSATISFIABLE